p edge 300 900
e 1 58
e 1 58
e 1 147
e 2 122
e 2 136
e 2 271
e 3 121
e 3 206
e 3 298
e 4 73
e 4 121
e 4 256
e 5 32
e 5 37
e 5 116
e 6 58
e 6 65
e 6 119
e 7 16
e 7 179
e 7 256
e 8 18
e 8 51
e 8 158
e 9 218
e 9 238
e 9 252
e 10 46
e 10 177
e 10 222
e 11 50
e 11 107
e 11 113
e 12 93
e 12 97
e 12 241
e 13 11
e 13 148
e 13 181
e 14 156
e 14 218
e 14 290
e 15 34
e 15 150
e 15 176
e 16 11
e 16 75
e 16 119
e 17 34
e 17 90
e 17 144
e 18 36
e 18 49
e 18 248
e 19 9
e 19 31
e 19 120
e 20 4
e 20 186
e 20 199
e 21 156
e 21 174
e 21 241
e 22 86
e 22 106
e 22 256
e 23 6
e 23 70
e 23 181
e 24 74
e 24 104
e 24 150
e 25 9
e 25 32
e 25 219
e 26 110
e 26 195
e 26 235
e 27 190
e 27 250
e 27 292
e 28 50
e 28 137
e 28 252
e 29 19
e 29 198
e 29 224
e 30 55
e 30 152
e 30 293
e 31 4
e 31 104
e 31 252
e 32 138
e 32 247
e 32 278
e 33 21
e 33 89
e 33 225
e 34 47
e 34 75
e 34 119
e 35 14
e 35 44
e 35 103
e 36 17
e 36 128
e 36 251
e 37 24
e 37 179
e 37 276
e 38 37
e 38 209
e 38 277
e 39 81
e 39 167
e 39 192
e 40 89
e 40 110
e 40 196
e 41 5
e 41 200
e 41 275
e 42 198
e 42 217
e 42 229
e 43 48
e 43 233
e 43 299
e 44 2
e 44 23
e 44 168
e 45 69
e 45 213
e 45 273
e 46 173
e 46 174
e 46 256
e 47 33
e 47 151
e 47 216
e 48 37
e 48 56
e 48 171
e 49 3
e 49 127
e 49 218
e 50 170
e 50 174
e 50 275
e 51 57
e 51 72
e 51 243
e 52 99
e 52 173
e 52 189
e 53 18
e 53 204
e 53 209
e 54 7
e 54 27
e 54 99
e 55 117
e 55 152
e 55 237
e 56 178
e 56 187
e 56 291
e 57 137
e 57 173
e 57 174
e 58 94
e 58 195
e 58 220
e 59 14
e 59 187
e 59 214
e 60 95
e 60 242
e 60 256
e 61 69
e 61 168
e 61 226
e 62 180
e 62 193
e 62 262
e 63 7
e 63 70
e 63 102
e 64 111
e 64 197
e 64 248
e 65 19
e 65 121
e 65 209
e 66 90
e 66 118
e 66 205
e 67 42
e 67 115
e 67 161
e 68 44
e 68 133
e 68 189
e 69 2
e 69 76
e 69 247
e 70 153
e 70 202
e 70 283
e 71 50
e 71 115
e 71 221
e 72 29
e 72 31
e 72 287
e 73 57
e 73 176
e 73 263
e 74 175
e 74 258
e 74 296
e 75 104
e 75 189
e 75 252
e 76 3
e 76 114
e 76 272
e 77 119
e 77 134
e 77 182
e 78 1
e 78 58
e 78 240
e 79 5
e 79 105
e 79 283
e 80 54
e 80 139
e 80 188
e 81 58
e 81 178
e 81 254
e 82 195
e 82 285
e 82 292
e 83 99
e 83 135
e 83 181
e 84 101
e 84 130
e 84 176
e 85 26
e 85 134
e 85 158
e 86 5
e 86 80
e 86 248
e 87 35
e 87 131
e 87 141
e 88 187
e 88 266
e 88 287
e 89 168
e 89 263
e 89 296
e 90 151
e 90 165
e 90 234
e 91 129
e 91 236
e 91 247
e 92 17
e 92 117
e 92 283
e 93 74
e 93 155
e 93 169
e 94 57
e 94 201
e 94 204
e 95 79
e 95 258
e 95 296
e 96 8
e 96 9
e 96 172
e 97 53
e 97 145
e 97 255
e 98 28
e 98 51
e 98 152
e 99 66
e 99 142
e 99 227
e 100 4
e 100 86
e 100 275
e 101 8
e 101 136
e 101 217
e 102 4
e 102 266
e 102 274
e 103 12
e 103 95
e 103 160
e 104 57
e 104 99
e 104 205
e 105 8
e 105 187
e 105 190
e 106 81
e 106 254
e 106 259
e 107 10
e 107 178
e 107 275
e 108 98
e 108 123
e 108 265
e 109 101
e 109 179
e 109 194
e 110 53
e 110 179
e 110 271
e 111 61
e 111 78
e 111 226
e 112 186
e 112 225
e 112 279
e 113 68
e 113 131
e 113 288
e 114 152
e 114 182
e 114 209
e 115 185
e 115 248
e 115 266
e 116 102
e 116 235
e 116 286
e 117 166
e 117 244
e 117 260
e 118 12
e 118 38
e 118 119
e 119 75
e 119 125
e 119 272
e 120 31
e 120 146
e 120 270
e 121 17
e 121 30
e 121 105
e 122 36
e 122 151
e 122 194
e 123 35
e 123 79
e 123 158
e 124 97
e 124 179
e 124 291
e 125 44
e 125 88
e 125 115
e 126 14
e 126 109
e 126 245
e 127 46
e 127 156
e 127 279
e 128 223
e 128 274
e 128 292
e 129 34
e 129 157
e 129 225
e 130 183
e 130 297
e 130 299
e 131 117
e 131 132
e 131 161
e 132 104
e 132 152
e 132 163
e 133 23
e 133 77
e 133 207
e 134 60
e 134 100
e 134 194
e 135 39
e 135 149
e 135 169
e 136 22
e 136 130
e 136 165
e 137 89
e 137 143
e 137 165
e 138 58
e 138 197
e 138 222
e 139 25
e 139 75
e 139 101
e 140 152
e 140 162
e 140 268
e 141 13
e 141 91
e 141 196
e 142 51
e 142 175
e 142 280
e 143 58
e 143 146
e 143 218
e 144 26
e 144 143
e 144 287
e 145 194
e 145 199
e 145 260
e 146 54
e 146 194
e 146 227
e 147 45
e 147 51
e 147 77
e 148 48
e 148 158
e 148 205
e 149 51
e 149 119
e 149 243
e 150 56
e 150 216
e 150 268
e 151 89
e 151 223
e 151 237
e 152 132
e 152 211
e 152 284
e 153 242
e 153 257
e 153 267
e 154 42
e 154 227
e 154 293
e 155 89
e 155 108
e 155 188
e 156 120
e 156 237
e 156 259
e 157 15
e 157 39
e 157 62
e 158 230
e 158 233
e 158 255
e 159 116
e 159 124
e 159 218
e 160 76
e 160 126
e 160 232
e 161 17
e 161 135
e 161 232
e 162 18
e 162 114
e 162 204
e 163 82
e 163 141
e 163 160
e 164 173
e 164 191
e 164 232
e 165 116
e 165 199
e 165 215
e 166 31
e 166 203
e 166 203
e 167 14
e 167 23
e 167 31
e 168 55
e 168 242
e 168 272
e 169 177
e 169 270
e 169 282
e 170 65
e 170 130
e 170 142
e 171 53
e 171 96
e 171 122
e 172 1
e 172 136
e 172 246
e 173 91
e 173 230
e 173 282
e 174 120
e 174 228
e 174 259
e 175 43
e 175 106
e 175 298
e 176 34
e 176 120
e 176 122
e 177 178
e 177 281
e 177 289
e 178 112
e 178 121
e 178 235
e 179 148
e 179 167
e 179 244
e 180 11
e 180 114
e 180 276
e 181 93
e 181 107
e 181 117
e 182 16
e 182 123
e 182 147
e 183 70
e 183 159
e 183 221
e 184 79
e 184 170
e 184 180
e 185 103
e 185 126
e 185 234
e 186 61
e 186 103
e 186 224
e 187 62
e 187 127
e 187 286
e 188 112
e 188 129
e 188 264
e 189 43
e 189 283
e 189 294
e 190 61
e 190 87
e 190 148
e 191 32
e 191 46
e 191 172
e 192 12
e 192 22
e 192 247
e 193 8
e 193 160
e 193 240
e 194 7
e 194 63
e 194 184
e 195 19
e 195 226
e 195 246
e 196 43
e 196 120
e 196 234
e 197 39
e 197 40
e 197 135
e 198 101
e 198 241
e 198 249
e 199 20
e 199 111
e 199 256
e 200 59
e 200 128
e 200 300
e 201 96
e 201 213
e 201 241
e 202 34
e 202 41
e 202 82
e 203 2
e 203 118
e 203 197
e 204 56
e 204 96
e 204 262
e 205 48
e 205 224
e 205 232
e 206 15
e 206 191
e 206 296
e 207 17
e 207 72
e 207 219
e 208 79
e 208 130
e 208 210
e 209 76
e 209 182
e 209 262
e 210 2
e 210 153
e 210 188
e 211 15
e 211 59
e 211 208
e 212 44
e 212 282
e 212 298
e 213 245
e 213 284
e 213 290
e 214 17
e 214 200
e 214 246
e 215 125
e 215 146
e 215 292
e 216 8
e 216 10
e 216 242
e 217 65
e 217 96
e 217 231
e 218 66
e 218 75
e 218 88
e 219 36
e 219 44
e 219 64
e 220 192
e 220 214
e 220 275
e 221 135
e 221 159
e 221 209
e 222 105
e 222 149
e 222 290
e 223 68
e 223 120
e 223 277
e 224 52
e 224 220
e 224 234
e 225 81
e 225 121
e 225 180
e 226 53
e 226 122
e 226 288
e 227 148
e 227 179
e 227 184
e 228 123
e 228 285
e 228 296
e 229 108
e 229 184
e 229 282
e 230 29
e 230 34
e 230 74
e 231 84
e 231 107
e 231 154
e 232 22
e 232 171
e 232 208
e 233 38
e 233 96
e 233 231
e 234 59
e 234 274
e 234 289
e 235 42
e 235 183
e 235 254
e 236 17
e 236 249
e 236 251
e 237 117
e 237 162
e 237 290
e 238 121
e 238 138
e 238 284
e 239 106
e 239 109
e 239 269
e 240 241
e 240 241
e 240 289
e 241 46
e 241 140
e 241 278
e 242 39
e 242 156
e 242 229
e 243 94
e 243 193
e 243 265
e 244 30
e 244 76
e 244 299
e 245 49
e 245 156
e 245 247
e 246 105
e 246 157
e 246 176
e 247 230
e 247 239
e 247 239
e 248 27
e 248 221
e 248 261
e 249 6
e 249 67
e 249 78
e 250 194
e 250 260
e 250 278
e 251 20
e 251 142
e 251 206
e 252 5
e 252 29
e 252 233
e 253 124
e 253 183
e 253 201
e 254 43
e 254 70
e 254 85
e 255 7
e 255 63
e 255 83
e 256 110
e 256 284
e 256 284
e 257 67
e 257 108
e 257 264
e 258 162
e 258 192
e 258 300
e 259 147
e 259 228
e 259 273
e 260 24
e 260 128
e 260 226
e 261 36
e 261 128
e 261 164
e 262 30
e 262 45
e 262 118
e 263 109
e 263 183
e 263 265
e 264 38
e 264 42
e 264 77
e 265 175
e 265 281
e 265 284
e 266 54
e 266 114
e 266 195
e 267 82
e 267 125
e 267 288
e 268 60
e 268 127
e 268 253
e 269 54
e 269 249
e 269 282
e 270 40
e 270 102
e 270 215
e 271 11
e 271 31
e 271 85
e 272 76
e 272 170
e 272 295
e 273 19
e 273 47
e 273 48
e 274 28
e 274 144
e 274 169
e 275 43
e 275 48
e 275 87
e 276 100
e 276 171
e 276 253
e 277 35
e 277 52
e 277 135
e 278 40
e 278 100
e 278 143
e 279 130
e 279 143
e 279 226
e 280 69
e 280 92
e 280 193
e 281 113
e 281 246
e 281 298
e 282 170
e 282 263
e 282 289
e 283 71
e 283 79
e 283 142
e 284 100
e 284 113
e 284 133
e 285 109
e 285 142
e 285 202
e 286 98
e 286 152
e 286 204
e 287 38
e 287 84
e 287 279
e 288 73
e 288 138
e 288 185
e 289 212
e 289 293
e 289 297
e 290 40
e 290 165
e 290 190
e 291 41
e 291 169
e 291 171
e 292 175
e 292 236
e 292 262
e 293 11
e 293 53
e 293 203
e 294 13
e 294 26
e 294 97
e 295 182
e 295 219
e 295 260
e 296 46
e 296 102
e 296 166
e 297 53
e 297 180
e 297 216
e 298 87
e 298 193
e 298 295
e 299 73
e 299 186
e 299 257
e 300 107
e 300 214
e 300 249
